\ENCODING=ISO-8859-1
\Problem name: ilog.cplex

Minimize
 obj1: 97784 x1 + 90903 x2 + 96080 x3 + 92581 x4 + 93404 x5 + 98498 x6
       + 93337 x7 + 103008 x8 + 106815 x9 + 99507 x10 + 104492 x11 + 92243 x12
       + 108179 x13 + 109716 x14 + 105845 x15 + 104174 x16 + 102843 x17
       + 90588 x18 + 103775 x19 + 101582 x20 + 99180 x21 + 96282 x22
       + 104267 x23 + 108050 x24 + 93369 x25 + 103387 x26 + 104460 x27
       + 99630 x28 + 108781 x29 + 97952 x30 + 97732 x31 + 98795 x32 + 94240 x33
       + 95480 x34 + 90710 x35 + 97166 x36 + 97593 x37 + 101319 x38 + 93152 x39
       + 108043 x40 + 108911 x41 + 101241 x42 + 99746 x43 + 104924 x44
       + 91051 x45 + 104963 x46 + 96677 x47 + 98032 x48 + 104415 x49
       + 109025 x50 + 95196 x51 + 97271 x52 + 107453 x53 + 99623 x54
       + 99428 x55 + 107091 x56 + 94766 x57 + 100903 x58 + 96333 x59
       + 96416 x60 + 105091 x61 + 107482 x62 + 103771 x63 + 90136 x64
       + 107235 x65 + 95578 x66 + 107427 x67 + 96957 x68 + 91421 x69
       + 93944 x70 + 105666 x71 + 98145 x72 + 97799 x73 + 99865 x74 + 96054 x75
       + 94431 x76 + 93075 x77 + 109282 x78 + 96125 x79 + 95050 x80
       + 105664 x81 + 99678 x82 + 103321 x83 + 99194 x84 + 105425 x85
       + 92494 x86 + 94392 x87 + 100976 x88 + 95017 x89 + 93043 x90 + 91612 x91
       + 94738 x92 + 103258 x93 + 102515 x94 + 94330 x95 + 94413 x96
       + 94755 x97 + 98825 x98 + 96077 x99 + 93170 x100 + 94660 x101
       + 90917 x102 + 99839 x103 + 97746 x104 + 92560 x105 + 104583 x106
       + 107065 x107 + 95580 x108 + 95313 x109 + 96955 x110 + 109633 x111
       + 92333 x112 + 105073 x113 + 101490 x114 + 98190 x115 + 92320 x116
       + 105801 x117 + 95669 x118 + 95183 x119 + 105093 x120 + 107637 x121
       + 99485 x122 + 94731 x123 + 100665 x124 + 93550 x125 + 104780 x126
       + 101164 x127 + 95114 x128 + 98117 x129 + 93542 x130 + 100743 x131
       + 98744 x132 + 101288 x133 + 103289 x134 + 96712 x135 + 97542 x136
       + 99392 x137 + 100728 x138 + 100701 x139 + 101012 x140 + 100770 x141
       + 103316 x142 + 109562 x143 + 100203 x144 + 100558 x145 + 104460 x146
       + 109315 x147 + 106917 x148 + 105477 x149 + 97234 x150 + 104514 x151
       + 94282 x152 + 90771 x153 + 104786 x154 + 97893 x155 + 100006 x156
       + 98316 x157 + 99537 x158 + 97394 x159 + 105363 x160 + 107457 x161
       + 107820 x162 + 105489 x163 + 105309 x164 + 108253 x165 + 91791 x166
       + 109163 x167 + 98142 x168 + 100606 x169 + 96231 x170 + 98029 x171
       + 106703 x172 + 92121 x173 + 104299 x174 + 92725 x175 + 97390 x176
       + 92582 x177 + 103343 x178 + 106100 x179 + 108069 x180 + 91515 x181
       + 97932 x182 + 98455 x183 + 97126 x184 + 107076 x185 + 96036 x186
       + 107504 x187 + 106903 x188 + 90030 x189 + 92610 x190 + 95924 x191
       + 102611 x192 + 95431 x193 + 91911 x194 + 107927 x195 + 101121 x196
       + 91280 x197 + 107108 x198 + 105616 x199 + 106176 x200 + 104402 x201
       + 94477 x202 + 99595 x203 + 98076 x204 + 101728 x205 + 102914 x206
       + 107297 x207 + 103076 x208 + 99460 x209 + 104959 x210 + 101718 x211
       + 101091 x212 + 93158 x213 + 96770 x214 + 96529 x215 + 106904 x216
       + 92860 x217 + 91393 x218 + 97498 x219 + 102277 x220 + 109091 x221
       + 102179 x222 + 94667 x223 + 104191 x224 + 107991 x225 + 101369 x226
       + 94943 x227 + 107905 x228 + 96772 x229 + 102608 x230 + 100522 x231
       + 102601 x232 + 94325 x233 + 95564 x234 + 105029 x235 + 102094 x236
       + 106041 x237 + 95846 x238 + 106280 x239 + 103417 x240 + 102032 x241
       + 101409 x242 + 93972 x243 + 105238 x244 + 94039 x245 + 108372 x246
       + 92230 x247 + 97748 x248 + 102916 x249 + 98688 x250 + 108380 x251
       + 103956 x252 + 101180 x253 + 99874 x254 + 108629 x255 + 99806 x256
       + 95830 x257 + 102483 x258 + 94312 x259 + 96388 x260 + 90466 x261
       + 105477 x262 + 91043 x263 + 102261 x264 + 106753 x265 + 105889 x266
       + 94371 x267 + 102571 x268 + 103157 x269 + 108124 x270 + 93447 x271
       + 105442 x272 + 109908 x273 + 98708 x274 + 105436 x275 + 99465 x276
       + 105671 x277 + 93428 x278 + 100351 x279 + 99987 x280 + 93644 x281
       + 95525 x282 + 98464 x283 + 96495 x284 + 92631 x285 + 105989 x286
       + 100632 x287 + 108532 x288 + 102071 x289 + 99966 x290 + 105605 x291
       + 93405 x292 + 109132 x293 + 106928 x294 + 97808 x295 + 105365 x296
       + 100633 x297 + 106468 x298 + 94107 x299 + 102978 x300 + 99108 x301
       + 98836 x302 + 105884 x303 + 91448 x304 + 106204 x305 + 102250 x306
       + 90415 x307 + 107318 x308 + 108526 x309 + 108328 x310 + 106262 x311
       + 91145 x312 + 92494 x313 + 99940 x314 + 104291 x315 + 96311 x316
       + 106522 x317 + 99530 x318 + 105111 x319 + 93716 x320 + 102484 x321
       + 109641 x322 + 104075 x323 + 92293 x324 + 92410 x325 + 105037 x326
       + 94500 x327 + 102222 x328 + 96039 x329 + 104703 x330 + 107248 x331
       + 97628 x332 + 97539 x333 + 102966 x334 + 105299 x335 + 96854 x336
       + 93017 x337 + 95531 x338 + 103060 x339 + 95257 x340 + 94341 x341
       + 98483 x342 + 101907 x343 + 98026 x344 + 99376 x345 + 106084 x346
       + 105797 x347 + 108644 x348 + 103890 x349 + 106694 x350 + 103787 x351
       + 92405 x352 + 96202 x353 + 95207 x354 + 99914 x355 + 93766 x356
       + 102049 x357 + 105100 x358 + 95129 x359 + 101358 x360 + 105115 x361
       + 109271 x362 + 108838 x363 + 108990 x364 + 96243 x365 + 101488 x366
       + 91561 x367 + 100196 x368 + 102657 x369 + 94153 x370 + 106895 x371
       + 97215 x372 + 90024 x373 + 96482 x374 + 99860 x375 + 109608 x376
       + 91701 x377 + 105799 x378 + 102500 x379 + 102487 x380 + 99632 x381
       + 104764 x382 + 106705 x383 + 101312 x384 + 92633 x385 + 95091 x386
       + 105906 x387 + 93817 x388 + 98562 x389 + 101202 x390 + 104246 x391
       + 90029 x392 + 102467 x393 + 109925 x394 + 92753 x395 + 91818 x396
       + 104117 x397 + 105684 x398 + 98665 x399 + 104540 x400 + 95168 x401
       + 94509 x402 + 106225 x403 + 95079 x404 + 108794 x405 + 104782 x406
       + 105121 x407 + 102926 x408 + 92698 x409 + 107791 x410 + 106201 x411
       + 103975 x412 + 90235 x413 + 96962 x414 + 93157 x415 + 90274 x416
       + 103741 x417 + 101094 x418 + 93601 x419 + 103237 x420 + 102694 x421
       + 92054 x422 + 100045 x423 + 103130 x424 + 109609 x425 + 90066 x426
       + 95609 x427 + 100434 x428 + 106454 x429 + 101404 x430 + 100868 x431
       + 102628 x432 + 95924 x433 + 103159 x434 + 101579 x435 + 95018 x436
       + 106075 x437 + 109045 x438 + 96116 x439 + 102225 x440 + 107927 x441
       + 93603 x442 + 106128 x443 + 107222 x444 + 100213 x445 + 104673 x446
       + 109936 x447 + 101503 x448 + 95169 x449 + 105919 x450 + 109932 x451
       + 95330 x452 + 109148 x453 + 96839 x454 + 107926 x455 + 107874 x456
       + 102302 x457 + 98951 x458 + 105663 x459 + 93717 x460 + 102718 x461
       + 93746 x462 + 91678 x463 + 104367 x464 + 92107 x465 + 90532 x466
       + 100214 x467 + 91232 x468 + 102523 x469 + 90398 x470 + 93071 x471
       + 90042 x472 + 96578 x473 + 96357 x474 + 101094 x475 + 105683 x476
       + 97219 x477 + 99055 x478 + 108406 x479 + 101219 x480 + 105119 x481
       + 94746 x482 + 104936 x483 + 97447 x484 + 106734 x485 + 102088 x486
       + 96070 x487 + 108096 x488 + 91606 x489 + 100301 x490 + 94139 x491
       + 97462 x492 + 95419 x493 + 107304 x494 + 103343 x495 + 94780 x496
       + 108221 x497 + 93896 x498 + 105712 x499 + 107327 x500 + 99024 x501
       + 105364 x502 + 90022 x503 + 102145 x504 + 94940 x505 + 106332 x506
       + 104851 x507 + 101781 x508 + 98755 x509 + 95577 x510 + 102879 x511
       + 103096 x512 + 104140 x513 + 97393 x514 + 99152 x515 + 100902 x516
       + 108671 x517 + 106560 x518 + 97343 x519 + 91472 x520 + 91425 x521
       + 105127 x522 + 104893 x523 + 104897 x524 + 94099 x525 + 100910 x526
       + 100466 x527 + 109823 x528 + 102451 x529 + 100003 x530 + 95289 x531
       + 109262 x532 + 108310 x533 + 98570 x534 + 103703 x535 + 101982 x536
       + 101488 x537 + 102804 x538 + 107670 x539 + 100410 x540 + 93014 x541
       + 92394 x542 + 90056 x543 + 91544 x544 + 96836 x545 + 94220 x546
       + 96855 x547 + 104481 x548 + 104117 x549 + 107718 x550 + 95848 x551
       + 104487 x552 + 105899 x553 + 96664 x554 + 97432 x555 + 103643 x556
       + 95049 x557 + 106637 x558 + 103852 x559 + 107827 x560 + 91292 x561
       + 91672 x562 + 109971 x563 + 101762 x564 + 91674 x565 + 107418 x566
       + 108377 x567 + 99061 x568 + 91295 x569 + 95002 x570 + 98384 x571
       + 109704 x572 + 101181 x573 + 105121 x574 + 108288 x575 + 102969 x576
       + 92873 x577 + 102853 x578 + 100798 x579 + 105164 x580 + 102581 x581
       + 90240 x582 + 102612 x583 + 108368 x584 + 91702 x585 + 105931 x586
       + 100882 x587 + 98911 x588 + 105036 x589 + 108981 x590 + 101671 x591
       + 102477 x592 + 93206 x593 + 107372 x594 + 108479 x595 + 106492 x596
       + 91618 x597 + 90894 x598 + 92549 x599 - 73430 x600 + 39689 x601
       + 43926 x602 + 39067 x603 + 39112 x604 + 42217 x605 + 36306 x606
       + 36195 x607 + 39598 x608 + 38883 x609 + 42082 x610 + 39225 x611
       + 43008 x612 + 38844 x613 + 41015 x614 + 40943 x615 + 41903 x616
       + 39500 x617 + 38321 x618 + 39714 x619 + 41013 x620 + 37876 x621
       + 39439 x622 + 38316 x623 + 41315 x624 + 41904 x625 + 43269 x626
       + 36606 x627 + 36831 x628 + 37617 x629 + 37377 x630 + 37150 x631
       + 37724 x632 + 40703 x633 + 43528 x634 + 36784 x635 + 40534 x636
       + 42053 x637 + 37537 x638 + 43606 x639 + 40386 x640 + 38906 x641
       + 37825 x642 + 42263 x643 + 36793 x644 + 41863 x645 + 38193 x646
       + 42427 x647 + 36137 x648 + 43502 x649 + 40201 x650 + 38208 x651
       + 36230 x652 + 42526 x653 + 43188 x654 + 39802 x655 + 43289 x656
       + 42301 x657 + 43342 x658 + 40991 x659 + 40897 x660
Subject To
 c1:   x12 - x21 - x22 + x23 - x35 - x44 - x46 + x51 + x56  = 0
 c2:   x72 - x81 - x82 + x83 - x95 - x104 - x106 + x111 + x116  = 0
 c3:   x132 - x141 - x142 + x143 - x155 - x164 - x166 + x171 + x176  = 0
 c4:   x192 - x201 - x202 + x203 - x215 - x224 - x226 + x231 + x236  = 0
 c5:   x252 - x261 - x262 + x263 - x275 - x284 - x286 + x291 + x296  = 0
 c6:   x312 - x321 - x322 + x323 - x335 - x344 - x346 + x351 + x356  = 0
 c7:   x372 - x381 - x382 + x383 - x395 - x404 - x406 + x411 + x416  = 0
 c8:   x432 - x441 - x442 + x443 - x455 - x464 - x466 + x471 + x476  = 0
 c9:   x492 - x501 - x502 + x503 - x515 - x524 - x526 + x531 + x536  = 0
 c10:  x552 - x561 - x562 + x563 - x575 - x584 - x586 + x591 + x596  = 0
 c11:  - x12 + x13 + x31 - x36 + x45 + x48 + x58  = 0
 c12:  - x72 + x73 + x91 - x96 + x105 + x108 + x118  = -1
 c13:  - x132 + x133 + x151 - x156 + x165 + x168 + x178  = 0
 c14:  - x192 + x193 + x211 - x216 + x225 + x228 + x238  = 0
 c15:  - x252 + x253 + x271 - x276 + x285 + x288 + x298  = 0
 c16:  - x312 + x313 + x331 - x336 + x345 + x348 + x358  = 0
 c17:  - x372 + x373 + x391 - x396 + x405 + x408 + x418  = 0
 c18:  - x432 + x433 + x451 - x456 + x465 + x468 + x478  = 0
 c19:  - x492 + x493 + x511 - x516 + x525 + x528 + x538  = 0
 c20:  - x552 + x553 + x571 - x576 + x585 + x588 + x598  = 0
 c21:  - x1 + x5 - x8 + x16 - x27 - x32 + x36 - x38 - x41  = 0
 c22:  - x61 + x65 - x68 + x76 - x87 - x92 + x96 - x98 - x101  = 0
 c23:  - x121 + x125 - x128 + x136 - x147 - x152 + x156 - x158 - x161  = 0
 c24:  - x181 + x185 - x188 + x196 - x207 - x212 + x216 - x218 - x221  = 0
 c25:  - x241 + x245 - x248 + x256 - x267 - x272 + x276 - x278 - x281  = 0
 c26:  - x301 + x305 - x308 + x316 - x327 - x332 + x336 - x338 - x341  = 0
 c27:  - x361 + x365 - x368 + x376 - x387 - x392 + x396 - x398 - x401  = 1
 c28:  - x421 + x425 - x428 + x436 - x447 - x452 + x456 - x458 - x461  = -1
 c29:  - x481 + x485 - x488 + x496 - x507 - x512 + x516 - x518 - x521  = 0
 c30:  - x541 + x545 - x548 + x556 - x567 - x572 + x576 - x578 - x581  = 0
 c31:  x2 + x17 + x38 - x40 + x50 - x60  = 0
 c32:  x62 + x77 + x98 - x100 + x110 - x120  = 0
 c33:  x122 + x137 + x158 - x160 + x170 - x180  = 0
 c34:  x182 + x197 + x218 - x220 + x230 - x240  = 0
 c35:  x242 + x257 + x278 - x280 + x290 - x300  = 0
 c36:  x302 + x317 + x338 - x340 + x350 - x360  = 0
 c37:  x362 + x377 + x398 - x400 + x410 - x420  = 0
 c38:  x422 + x437 + x458 - x460 + x470 - x480  = 0
 c39:  x482 + x497 + x518 - x520 + x530 - x540  = 0
 c40:  x542 + x557 + x578 - x580 + x590 - x600  = 0
 c41:  - x4 - x7 + x15 - x23 - x25 + x40 + x41 - x47  = 0
 c42:  - x64 - x67 + x75 - x83 - x85 + x100 + x101 - x107  = 0
 c43:  - x124 - x127 + x135 - x143 - x145 + x160 + x161 - x167  = 0
 c44:  - x184 - x187 + x195 - x203 - x205 + x220 + x221 - x227  = 0
 c45:  - x244 - x247 + x255 - x263 - x265 + x280 + x281 - x287  = 0
 c46:  - x304 - x307 + x315 - x323 - x325 + x340 + x341 - x347  = 1
 c47:  - x364 - x367 + x375 - x383 - x385 + x400 + x401 - x407  = 0
 c48:  - x424 - x427 + x435 - x443 - x445 + x460 + x461 - x467  = 0
 c49:  - x484 - x487 + x495 - x503 - x505 + x520 + x521 - x527  = 0
 c50:  - x544 - x547 + x555 - x563 - x565 + x580 + x581 - x587  = 0
 c51:  x1 - x10 - x16 - x17 - x18 + x24 + x25 - x26 - x39 + x43 - x51 - x58
        = 0
 c52:  x61 - x70 - x76 - x77 - x78 + x84 + x85 - x86 - x99 + x103 - x111 - x118
        = 0
 c53:  x121 - x130 - x136 - x137 - x138 + x144 + x145 - x146 - x159 + x163
       - x171 - x178  = 0
 c54:  x181 - x190 - x196 - x197 - x198 + x204 + x205 - x206 - x219 + x223
       - x231 - x238  = 0
 c55:  x241 - x250 - x256 - x257 - x258 + x264 + x265 - x266 - x279 + x283
       - x291 - x298  = 0
 c56:  x301 - x310 - x316 - x317 - x318 + x324 + x325 - x326 - x339 + x343
       - x351 - x358  = 0
 c57:  x361 - x370 - x376 - x377 - x378 + x384 + x385 - x386 - x399 + x403
       - x411 - x418  = 0
 c58:  x421 - x430 - x436 - x437 - x438 + x444 + x445 - x446 - x459 + x463
       - x471 - x478  = 0
 c59:  x481 - x490 - x496 - x497 - x498 + x504 + x505 - x506 - x519 + x523
       - x531 - x538  = 0
 c60:  x541 - x550 - x556 - x557 - x558 + x564 + x565 - x566 - x579 + x583
       - x591 - x598  = 0
 c61:  - x2 - x9 + x14 + x26 - x30 + x32 + x34 + x46 + x59 + x60  = 1
 c62:  - x62 - x69 + x74 + x86 - x90 + x92 + x94 + x106 + x119 + x120  = 0
 c63:  - x122 - x129 + x134 + x146 - x150 + x152 + x154 + x166 + x179 + x180
        = 0
 c64:  - x182 - x189 + x194 + x206 - x210 + x212 + x214 + x226 + x239 + x240
        = 0
 c65:  - x242 - x249 + x254 + x266 - x270 + x272 + x274 + x286 + x299 + x300
        = 0
 c66:  - x302 - x309 + x314 + x326 - x330 + x332 + x334 + x346 + x359 + x360
        = -1
 c67:  - x362 - x369 + x374 + x386 - x390 + x392 + x394 + x406 + x419 + x420
        = 0
 c68:  - x422 - x429 + x434 + x446 - x450 + x452 + x454 + x466 + x479 + x480
        = 0
 c69:  - x482 - x489 + x494 + x506 - x510 + x512 + x514 + x526 + x539 + x540
        = 0
 c70:  - x542 - x549 + x554 + x566 - x570 + x572 + x574 + x586 + x599 + x600
        = 0
 c71:  x6 + x7 - x43 + x54 + x55 - x56 - x57  = 0
 c72:  x66 + x67 - x103 + x114 + x115 - x116 - x117  = 0
 c73:  x126 + x127 - x163 + x174 + x175 - x176 - x177  = 1
 c74:  x186 + x187 - x223 + x234 + x235 - x236 - x237  = 1
 c75:  x246 + x247 - x283 + x294 + x295 - x296 - x297  = 0
 c76:  x306 + x307 - x343 + x354 + x355 - x356 - x357  = 0
 c77:  x366 + x367 - x403 + x414 + x415 - x416 - x417  = 0
 c78:  x426 + x427 - x463 + x474 + x475 - x476 - x477  = 0
 c79:  x486 + x487 - x523 + x534 + x535 - x536 - x537  = 0
 c80:  x546 + x547 - x583 + x594 + x595 - x596 - x597  = 1
 c81:  x4 - x6 - x14 - x15 + x18 - x20 - x24 + x28 + x33 - x37 - x45  = 0
 c82:  x64 - x66 - x74 - x75 + x78 - x80 - x84 + x88 + x93 - x97 - x105  = 0
 c83:  x124 - x126 - x134 - x135 + x138 - x140 - x144 + x148 + x153 - x157
       - x165  = 0
 c84:  x184 - x186 - x194 - x195 + x198 - x200 - x204 + x208 + x213 - x217
       - x225  = 0
 c85:  x244 - x246 - x254 - x255 + x258 - x260 - x264 + x268 + x273 - x277
       - x285  = 0
 c86:  x304 - x306 - x314 - x315 + x318 - x320 - x324 + x328 + x333 - x337
       - x345  = 0
 c87:  x364 - x366 - x374 - x375 + x378 - x380 - x384 + x388 + x393 - x397
       - x405  = -1
 c88:  x424 - x426 - x434 - x435 + x438 - x440 - x444 + x448 + x453 - x457
       - x465  = 0
 c89:  x484 - x486 - x494 - x495 + x498 - x500 - x504 + x508 + x513 - x517
       - x525  = 0
 c90:  x544 - x546 - x554 - x555 + x558 - x560 - x564 + x568 + x573 - x577
       - x585  = 0
 c91:  x3 + x11 - x19 + x30 - x31 + x35  = 0
 c92:  x63 + x71 - x79 + x90 - x91 + x95  = 0
 c93:  x123 + x131 - x139 + x150 - x151 + x155  = 0
 c94:  x183 + x191 - x199 + x210 - x211 + x215  = 0
 c95:  x243 + x251 - x259 + x270 - x271 + x275  = -1
 c96:  x303 + x311 - x319 + x330 - x331 + x335  = 0
 c97:  x363 + x371 - x379 + x390 - x391 + x395  = 0
 c98:  x423 + x431 - x439 + x450 - x451 + x455  = 0
 c99:  x483 + x491 - x499 + x510 - x511 + x515  = 1
 c100: x543 + x551 - x559 + x570 - x571 + x575  = 0
 c101: - x5 - x29 - x48 - x54 + x57  = -1
 c102: - x65 - x89 - x108 - x114 + x117  = 0
 c103: - x125 - x149 - x168 - x174 + x177  = 0
 c104: - x185 - x209 - x228 - x234 + x237  = 0
 c105: - x245 - x269 - x288 - x294 + x297  = 1
 c106: - x305 - x329 - x348 - x354 + x357  = 0
 c107: - x365 - x389 - x408 - x414 + x417  = 0
 c108: - x425 - x449 - x468 - x474 + x477  = 1
 c109: - x485 - x509 - x528 - x534 + x537  = 0
 c110: - x545 - x569 - x588 - x594 + x597  = 0
 c111: x10 + x22 - x28 - x49 + x53  = 0
 c112: x70 + x82 - x88 - x109 + x113  = 0
 c113: x130 + x142 - x148 - x169 + x173  = 0
 c114: x190 + x202 - x208 - x229 + x233  = -1
 c115: x250 + x262 - x268 - x289 + x293  = 0
 c116: x310 + x322 - x328 - x349 + x353  = 0
 c117: x370 + x382 - x388 - x409 + x413  = 0
 c118: x430 + x442 - x448 - x469 + x473  = 0
 c119: x490 + x502 - x508 - x529 + x533  = 0
 c120: x550 + x562 - x568 - x589 + x593  = -1
 c121: - x3 + x8 + x29 - x33 - x34 + x49  = 0
 c122: - x63 + x68 + x89 - x93 - x94 + x109  = 0
 c123: - x123 + x128 + x149 - x153 - x154 + x169  = -1
 c124: - x183 + x188 + x209 - x213 - x214 + x229  = 0
 c125: - x243 + x248 + x269 - x273 - x274 + x289  = 0
 c126: - x303 + x308 + x329 - x333 - x334 + x349  = 0
 c127: - x363 + x368 + x389 - x393 - x394 + x409  = 0
 c128: - x423 + x428 + x449 - x453 - x454 + x469  = 0
 c129: - x483 + x488 + x509 - x513 - x514 + x529  = 0
 c130: - x543 + x548 + x569 - x573 - x574 + x589  = 0
 c131: x9 + x19 + x21 + x37 - x42 + x52  = 0
 c132: x69 + x79 + x81 + x97 - x102 + x112  = 0
 c133: x129 + x139 + x141 + x157 - x162 + x172  = 0
 c134: x189 + x199 + x201 + x217 - x222 + x232  = 0
 c135: x249 + x259 + x261 + x277 - x282 + x292  = 0
 c136: x309 + x319 + x321 + x337 - x342 + x352  = 0
 c137: x369 + x379 + x381 + x397 - x402 + x412  = 0
 c138: x429 + x439 + x441 + x457 - x462 + x472  = 0
 c139: x489 + x499 + x501 + x517 - x522 + x532  = 0
 c140: x549 + x559 + x561 + x577 - x582 + x592  = 0
 c141: - x11 - x13 + x20 + x27 + x39 + x42 + x44 + x47 - x50 - x52 - x53 - x55
       - x59  = 0
 c142: - x71 - x73 + x80 + x87 + x99 + x102 + x104 + x107 - x110 - x112 - x113
       - x115 - x119  = 1
 c143: - x131 - x133 + x140 + x147 + x159 + x162 + x164 + x167 - x170 - x172
       - x173 - x175 - x179  = 0
 c144: - x191 - x193 + x200 + x207 + x219 + x222 + x224 + x227 - x230 - x232
       - x233 - x235 - x239  = 0
 c145: - x251 - x253 + x260 + x267 + x279 + x282 + x284 + x287 - x290 - x292
       - x293 - x295 - x299  = 0
 c146: - x311 - x313 + x320 + x327 + x339 + x342 + x344 + x347 - x350 - x352
       - x353 - x355 - x359  = 0
 c147: - x371 - x373 + x380 + x387 + x399 + x402 + x404 + x407 - x410 - x412
       - x413 - x415 - x419  = 0
 c148: - x431 - x433 + x440 + x447 + x459 + x462 + x464 + x467 - x470 - x472
       - x473 - x475 - x479  = 0
 c149: - x491 - x493 + x500 + x507 + x519 + x522 + x524 + x527 - x530 - x532
       - x533 - x535 - x539  = -1
 c150: - x551 - x553 + x560 + x567 + x579 + x582 + x584 + x587 - x590 - x592
       - x593 - x595 - x599  = 0
 c151: 4 x1 + 4 x61 + 4 x121 + 4 x181 + 4 x241 + 4 x301 + 4 x361 + 4 x421
       + 4 x481 + 4 x541 - 18 x601 <= 0
 c152: 4 x2 + 4 x62 + 4 x122 + 4 x182 + 4 x242 + 4 x302 + 4 x362 + 4 x422
       + 4 x482 + 4 x542 - 21 x602 <= 0
 c153: 4 x3 + 4 x63 + 4 x123 + 4 x183 + 4 x243 + 4 x303 + 4 x363 + 4 x423
       + 4 x483 + 4 x543 - 20 x603 <= 0
 c154: 4 x4 + 4 x64 + 4 x124 + 4 x184 + 4 x244 + 4 x304 + 4 x364 + 4 x424
       + 4 x484 + 4 x544 - 20 x604 <= 0
 c155: 4 x5 + 4 x65 + 4 x125 + 4 x185 + 4 x245 + 4 x305 + 4 x365 + 4 x425
       + 4 x485 + 4 x545 - 20 x605 <= 0
 c156: 4 x6 + 4 x66 + 4 x126 + 4 x186 + 4 x246 + 4 x306 + 4 x366 + 4 x426
       + 4 x486 + 4 x546 - 19 x606 <= 0
 c157: 4 x7 + 4 x67 + 4 x127 + 4 x187 + 4 x247 + 4 x307 + 4 x367 + 4 x427
       + 4 x487 + 4 x547 - 20 x607 <= 0
 c158: 4 x8 + 4 x68 + 4 x128 + 4 x188 + 4 x248 + 4 x308 + 4 x368 + 4 x428
       + 4 x488 + 4 x548 - 21 x608 <= 0
 c159: 4 x9 + 4 x69 + 4 x129 + 4 x189 + 4 x249 + 4 x309 + 4 x369 + 4 x429
       + 4 x489 + 4 x549 - 21 x609 <= 0
 c160: 4 x10 + 4 x70 + 4 x130 + 4 x190 + 4 x250 + 4 x310 + 4 x370 + 4 x430
       + 4 x490 + 4 x550 - 21 x610 <= 0
 c161: 4 x11 + 4 x71 + 4 x131 + 4 x191 + 4 x251 + 4 x311 + 4 x371 + 4 x431
       + 4 x491 + 4 x551 - 22 x611 <= 0
 c162: 4 x12 + 4 x72 + 4 x132 + 4 x192 + 4 x252 + 4 x312 + 4 x372 + 4 x432
       + 4 x492 + 4 x552 - 22 x612 <= 0
 c163: 4 x13 + 4 x73 + 4 x133 + 4 x193 + 4 x253 + 4 x313 + 4 x373 + 4 x433
       + 4 x493 + 4 x553 - 21 x613 <= 0
 c164: 4 x14 + 4 x74 + 4 x134 + 4 x194 + 4 x254 + 4 x314 + 4 x374 + 4 x434
       + 4 x494 + 4 x554 - 22 x614 <= 0
 c165: 4 x15 + 4 x75 + 4 x135 + 4 x195 + 4 x255 + 4 x315 + 4 x375 + 4 x435
       + 4 x495 + 4 x555 - 19 x615 <= 0
 c166: 4 x16 + 4 x76 + 4 x136 + 4 x196 + 4 x256 + 4 x316 + 4 x376 + 4 x436
       + 4 x496 + 4 x556 - 19 x616 <= 0
 c167: 4 x17 + 4 x77 + 4 x137 + 4 x197 + 4 x257 + 4 x317 + 4 x377 + 4 x437
       + 4 x497 + 4 x557 - 18 x617 <= 0
 c168: 4 x18 + 4 x78 + 4 x138 + 4 x198 + 4 x258 + 4 x318 + 4 x378 + 4 x438
       + 4 x498 + 4 x558 - 18 x618 <= 0
 c169: 4 x19 + 4 x79 + 4 x139 + 4 x199 + 4 x259 + 4 x319 + 4 x379 + 4 x439
       + 4 x499 + 4 x559 - 21 x619 <= 0
 c170: 4 x20 + 4 x80 + 4 x140 + 4 x200 + 4 x260 + 4 x320 + 4 x380 + 4 x440
       + 4 x500 + 4 x560 - 18 x620 <= 0
 c171: 4 x21 + 4 x81 + 4 x141 + 4 x201 + 4 x261 + 4 x321 + 4 x381 + 4 x441
       + 4 x501 + 4 x561 - 21 x621 <= 0
 c172: 4 x22 + 4 x82 + 4 x142 + 4 x202 + 4 x262 + 4 x322 + 4 x382 + 4 x442
       + 4 x502 + 4 x562 - 18 x622 <= 0
 c173: 4 x23 + 4 x83 + 4 x143 + 4 x203 + 4 x263 + 4 x323 + 4 x383 + 4 x443
       + 4 x503 + 4 x563 - 19 x623 <= 0
 c174: 4 x24 + 4 x84 + 4 x144 + 4 x204 + 4 x264 + 4 x324 + 4 x384 + 4 x444
       + 4 x504 + 4 x564 - 21 x624 <= 0
 c175: 4 x25 + 4 x85 + 4 x145 + 4 x205 + 4 x265 + 4 x325 + 4 x385 + 4 x445
       + 4 x505 + 4 x565 - 22 x625 <= 0
 c176: 4 x26 + 4 x86 + 4 x146 + 4 x206 + 4 x266 + 4 x326 + 4 x386 + 4 x446
       + 4 x506 + 4 x566 - 19 x626 <= 0
 c177: 4 x27 + 4 x87 + 4 x147 + 4 x207 + 4 x267 + 4 x327 + 4 x387 + 4 x447
       + 4 x507 + 4 x567 - 21 x627 <= 0
 c178: 4 x28 + 4 x88 + 4 x148 + 4 x208 + 4 x268 + 4 x328 + 4 x388 + 4 x448
       + 4 x508 + 4 x568 - 21 x628 <= 0
 c179: 4 x29 + 4 x89 + 4 x149 + 4 x209 + 4 x269 + 4 x329 + 4 x389 + 4 x449
       + 4 x509 + 4 x569 - 21 x629 <= 0
 c180: 4 x30 + 4 x90 + 4 x150 + 4 x210 + 4 x270 + 4 x330 + 4 x390 + 4 x450
       + 4 x510 + 4 x570 - 19 x630 <= 0
 c181: 4 x31 + 4 x91 + 4 x151 + 4 x211 + 4 x271 + 4 x331 + 4 x391 + 4 x451
       + 4 x511 + 4 x571 - 19 x631 <= 0
 c182: 4 x32 + 4 x92 + 4 x152 + 4 x212 + 4 x272 + 4 x332 + 4 x392 + 4 x452
       + 4 x512 + 4 x572 - 20 x632 <= 0
 c183: 4 x33 + 4 x93 + 4 x153 + 4 x213 + 4 x273 + 4 x333 + 4 x393 + 4 x453
       + 4 x513 + 4 x573 - 21 x633 <= 0
 c184: 4 x34 + 4 x94 + 4 x154 + 4 x214 + 4 x274 + 4 x334 + 4 x394 + 4 x454
       + 4 x514 + 4 x574 - 20 x634 <= 0
 c185: 4 x35 + 4 x95 + 4 x155 + 4 x215 + 4 x275 + 4 x335 + 4 x395 + 4 x455
       + 4 x515 + 4 x575 - 21 x635 <= 0
 c186: 4 x36 + 4 x96 + 4 x156 + 4 x216 + 4 x276 + 4 x336 + 4 x396 + 4 x456
       + 4 x516 + 4 x576 - 21 x636 <= 0
 c187: 4 x37 + 4 x97 + 4 x157 + 4 x217 + 4 x277 + 4 x337 + 4 x397 + 4 x457
       + 4 x517 + 4 x577 - 21 x637 <= 0
 c188: 4 x38 + 4 x98 + 4 x158 + 4 x218 + 4 x278 + 4 x338 + 4 x398 + 4 x458
       + 4 x518 + 4 x578 - 20 x638 <= 0
 c189: 4 x39 + 4 x99 + 4 x159 + 4 x219 + 4 x279 + 4 x339 + 4 x399 + 4 x459
       + 4 x519 + 4 x579 - 19 x639 <= 0
 c190: 4 x40 + 4 x100 + 4 x160 + 4 x220 + 4 x280 + 4 x340 + 4 x400 + 4 x460
       + 4 x520 + 4 x580 - 22 x640 <= 0
 c191: 4 x41 + 4 x101 + 4 x161 + 4 x221 + 4 x281 + 4 x341 + 4 x401 + 4 x461
       + 4 x521 + 4 x581 - 20 x641 <= 0
 c192: 4 x42 + 4 x102 + 4 x162 + 4 x222 + 4 x282 + 4 x342 + 4 x402 + 4 x462
       + 4 x522 + 4 x582 - 18 x642 <= 0
 c193: 4 x43 + 4 x103 + 4 x163 + 4 x223 + 4 x283 + 4 x343 + 4 x403 + 4 x463
       + 4 x523 + 4 x583 - 21 x643 <= 0
 c194: 4 x44 + 4 x104 + 4 x164 + 4 x224 + 4 x284 + 4 x344 + 4 x404 + 4 x464
       + 4 x524 + 4 x584 - 19 x644 <= 0
 c195: 4 x45 + 4 x105 + 4 x165 + 4 x225 + 4 x285 + 4 x345 + 4 x405 + 4 x465
       + 4 x525 + 4 x585 - 22 x645 <= 0
 c196: 4 x46 + 4 x106 + 4 x166 + 4 x226 + 4 x286 + 4 x346 + 4 x406 + 4 x466
       + 4 x526 + 4 x586 - 21 x646 <= 0
 c197: 4 x47 + 4 x107 + 4 x167 + 4 x227 + 4 x287 + 4 x347 + 4 x407 + 4 x467
       + 4 x527 + 4 x587 - 21 x647 <= 0
 c198: 4 x48 + 4 x108 + 4 x168 + 4 x228 + 4 x288 + 4 x348 + 4 x408 + 4 x468
       + 4 x528 + 4 x588 - 21 x648 <= 0
 c199: 4 x49 + 4 x109 + 4 x169 + 4 x229 + 4 x289 + 4 x349 + 4 x409 + 4 x469
       + 4 x529 + 4 x589 - 21 x649 <= 0
 c200: 4 x50 + 4 x110 + 4 x170 + 4 x230 + 4 x290 + 4 x350 + 4 x410 + 4 x470
       + 4 x530 + 4 x590 - 21 x650 <= 0
 c201: 4 x51 + 4 x111 + 4 x171 + 4 x231 + 4 x291 + 4 x351 + 4 x411 + 4 x471
       + 4 x531 + 4 x591 - 20 x651 <= 0
 c202: 4 x52 + 4 x112 + 4 x172 + 4 x232 + 4 x292 + 4 x352 + 4 x412 + 4 x472
       + 4 x532 + 4 x592 - 21 x652 <= 0
 c203: 4 x53 + 4 x113 + 4 x173 + 4 x233 + 4 x293 + 4 x353 + 4 x413 + 4 x473
       + 4 x533 + 4 x593 - 18 x653 <= 0
 c204: 4 x54 + 4 x114 + 4 x174 + 4 x234 + 4 x294 + 4 x354 + 4 x414 + 4 x474
       + 4 x534 + 4 x594 - 18 x654 <= 0
 c205: 4 x55 + 4 x115 + 4 x175 + 4 x235 + 4 x295 + 4 x355 + 4 x415 + 4 x475
       + 4 x535 + 4 x595 - 19 x655 <= 0
 c206: 4 x56 + 4 x116 + 4 x176 + 4 x236 + 4 x296 + 4 x356 + 4 x416 + 4 x476
       + 4 x536 + 4 x596 - 22 x656 <= 0
 c207: 4 x57 + 4 x117 + 4 x177 + 4 x237 + 4 x297 + 4 x357 + 4 x417 + 4 x477
       + 4 x537 + 4 x597 - 22 x657 <= 0
 c208: 4 x58 + 4 x118 + 4 x178 + 4 x238 + 4 x298 + 4 x358 + 4 x418 + 4 x478
       + 4 x538 + 4 x598 - 21 x658 <= 0
 c209: 4 x59 + 4 x119 + 4 x179 + 4 x239 + 4 x299 + 4 x359 + 4 x419 + 4 x479
       + 4 x539 + 4 x599 - 19 x659 <= 0
 c210: 4 x60 + 4 x120 + 4 x180 + 4 x240 + 4 x300 + 4 x360 + 4 x420 + 4 x480
       + 4 x540 + 4 x600 - 8 x660 <= 0
Bounds
 0 <= x1 <= 1
 0 <= x2 <= 1
 0 <= x3 <= 1
 0 <= x4 <= 1
 0 <= x5 <= 1
 0 <= x6 <= 1
 0 <= x7 <= 1
 0 <= x8 <= 1
 0 <= x9 <= 1
 0 <= x10 <= 1
 0 <= x11 <= 1
 0 <= x12 <= 1
 0 <= x13 <= 1
 0 <= x14 <= 1
 0 <= x15 <= 1
 0 <= x16 <= 1
 0 <= x17 <= 1
 0 <= x18 <= 1
 0 <= x19 <= 1
 0 <= x20 <= 1
 0 <= x21 <= 1
 0 <= x22 <= 1
 0 <= x23 <= 1
 0 <= x24 <= 1
 0 <= x25 <= 1
 0 <= x26 <= 1
 0 <= x27 <= 1
 0 <= x28 <= 1
 0 <= x29 <= 1
 0 <= x30 <= 1
 0 <= x31 <= 1
 0 <= x32 <= 1
 0 <= x33 <= 1
 0 <= x34 <= 1
 0 <= x35 <= 1
 0 <= x36 <= 1
 0 <= x37 <= 1
 0 <= x38 <= 1
 0 <= x39 <= 1
 0 <= x40 <= 1
 0 <= x41 <= 1
 0 <= x42 <= 1
 0 <= x43 <= 1
 0 <= x44 <= 1
 0 <= x45 <= 1
 0 <= x46 <= 1
 0 <= x47 <= 1
 0 <= x48 <= 1
 0 <= x49 <= 1
 0 <= x50 <= 1
 0 <= x51 <= 1
 0 <= x52 <= 1
 0 <= x53 <= 1
 0 <= x54 <= 1
 0 <= x55 <= 1
 0 <= x56 <= 1
 0 <= x57 <= 1
 0 <= x58 <= 1
 0 <= x59 <= 1
 0 <= x60 <= 1
 0 <= x61 <= 1
 0 <= x62 <= 1
 0 <= x63 <= 1
 0 <= x64 <= 1
 0 <= x65 <= 1
 0 <= x66 <= 1
 0 <= x67 <= 1
 0 <= x68 <= 1
 0 <= x69 <= 1
 0 <= x70 <= 1
 0 <= x71 <= 1
 0 <= x72 <= 1
 0 <= x73 <= 1
 0 <= x74 <= 1
 0 <= x75 <= 1
 0 <= x76 <= 1
 0 <= x77 <= 1
 0 <= x78 <= 1
 0 <= x79 <= 1
 0 <= x80 <= 1
 0 <= x81 <= 1
 0 <= x82 <= 1
 0 <= x83 <= 1
 0 <= x84 <= 1
 0 <= x85 <= 1
 0 <= x86 <= 1
 0 <= x87 <= 1
 0 <= x88 <= 1
 0 <= x89 <= 1
 0 <= x90 <= 1
 0 <= x91 <= 1
 0 <= x92 <= 1
 0 <= x93 <= 1
 0 <= x94 <= 1
 0 <= x95 <= 1
 0 <= x96 <= 1
 0 <= x97 <= 1
 0 <= x98 <= 1
 0 <= x99 <= 1
 0 <= x100 <= 1
 0 <= x101 <= 1
 0 <= x102 <= 1
 0 <= x103 <= 1
 0 <= x104 <= 1
 0 <= x105 <= 1
 0 <= x106 <= 1
 0 <= x107 <= 1
 0 <= x108 <= 1
 0 <= x109 <= 1
 0 <= x110 <= 1
 0 <= x111 <= 1
 0 <= x112 <= 1
 0 <= x113 <= 1
 0 <= x114 <= 1
 0 <= x115 <= 1
 0 <= x116 <= 1
 0 <= x117 <= 1
 0 <= x118 <= 1
 0 <= x119 <= 1
 0 <= x120 <= 1
 0 <= x121 <= 1
 0 <= x122 <= 1
 0 <= x123 <= 1
 0 <= x124 <= 1
 0 <= x125 <= 1
 0 <= x126 <= 1
 0 <= x127 <= 1
 0 <= x128 <= 1
 0 <= x129 <= 1
 0 <= x130 <= 1
 0 <= x131 <= 1
 0 <= x132 <= 1
 0 <= x133 <= 1
 0 <= x134 <= 1
 0 <= x135 <= 1
 0 <= x136 <= 1
 0 <= x137 <= 1
 0 <= x138 <= 1
 0 <= x139 <= 1
 0 <= x140 <= 1
 0 <= x141 <= 1
 0 <= x142 <= 1
 0 <= x143 <= 1
 0 <= x144 <= 1
 0 <= x145 <= 1
 0 <= x146 <= 1
 0 <= x147 <= 1
 0 <= x148 <= 1
 0 <= x149 <= 1
 0 <= x150 <= 1
 0 <= x151 <= 1
 0 <= x152 <= 1
 0 <= x153 <= 1
 0 <= x154 <= 1
 0 <= x155 <= 1
 0 <= x156 <= 1
 0 <= x157 <= 1
 0 <= x158 <= 1
 0 <= x159 <= 1
 0 <= x160 <= 1
 0 <= x161 <= 1
 0 <= x162 <= 1
 0 <= x163 <= 1
 0 <= x164 <= 1
 0 <= x165 <= 1
 0 <= x166 <= 1
 0 <= x167 <= 1
 0 <= x168 <= 1
 0 <= x169 <= 1
 0 <= x170 <= 1
 0 <= x171 <= 1
 0 <= x172 <= 1
 0 <= x173 <= 1
 0 <= x174 <= 1
 0 <= x175 <= 1
 0 <= x176 <= 1
 0 <= x177 <= 1
 0 <= x178 <= 1
 0 <= x179 <= 1
 0 <= x180 <= 1
 0 <= x181 <= 1
 0 <= x182 <= 1
 0 <= x183 <= 1
 0 <= x184 <= 1
 0 <= x185 <= 1
 0 <= x186 <= 1
 0 <= x187 <= 1
 0 <= x188 <= 1
 0 <= x189 <= 1
 0 <= x190 <= 1
 0 <= x191 <= 1
 0 <= x192 <= 1
 0 <= x193 <= 1
 0 <= x194 <= 1
 0 <= x195 <= 1
 0 <= x196 <= 1
 0 <= x197 <= 1
 0 <= x198 <= 1
 0 <= x199 <= 1
 0 <= x200 <= 1
 0 <= x201 <= 1
 0 <= x202 <= 1
 0 <= x203 <= 1
 0 <= x204 <= 1
 0 <= x205 <= 1
 0 <= x206 <= 1
 0 <= x207 <= 1
 0 <= x208 <= 1
 0 <= x209 <= 1
 0 <= x210 <= 1
 0 <= x211 <= 1
 0 <= x212 <= 1
 0 <= x213 <= 1
 0 <= x214 <= 1
 0 <= x215 <= 1
 0 <= x216 <= 1
 0 <= x217 <= 1
 0 <= x218 <= 1
 0 <= x219 <= 1
 0 <= x220 <= 1
 0 <= x221 <= 1
 0 <= x222 <= 1
 0 <= x223 <= 1
 0 <= x224 <= 1
 0 <= x225 <= 1
 0 <= x226 <= 1
 0 <= x227 <= 1
 0 <= x228 <= 1
 0 <= x229 <= 1
 0 <= x230 <= 1
 0 <= x231 <= 1
 0 <= x232 <= 1
 0 <= x233 <= 1
 0 <= x234 <= 1
 0 <= x235 <= 1
 0 <= x236 <= 1
 0 <= x237 <= 1
 0 <= x238 <= 1
 0 <= x239 <= 1
 0 <= x240 <= 1
 0 <= x241 <= 1
 0 <= x242 <= 1
 0 <= x243 <= 1
 0 <= x244 <= 1
 0 <= x245 <= 1
 0 <= x246 <= 1
 0 <= x247 <= 1
 0 <= x248 <= 1
 0 <= x249 <= 1
 0 <= x250 <= 1
 0 <= x251 <= 1
 0 <= x252 <= 1
 0 <= x253 <= 1
 0 <= x254 <= 1
 0 <= x255 <= 1
 0 <= x256 <= 1
 0 <= x257 <= 1
 0 <= x258 <= 1
 0 <= x259 <= 1
 0 <= x260 <= 1
 0 <= x261 <= 1
 0 <= x262 <= 1
 0 <= x263 <= 1
 0 <= x264 <= 1
 0 <= x265 <= 1
 0 <= x266 <= 1
 0 <= x267 <= 1
 0 <= x268 <= 1
 0 <= x269 <= 1
 0 <= x270 <= 1
 0 <= x271 <= 1
 0 <= x272 <= 1
 0 <= x273 <= 1
 0 <= x274 <= 1
 0 <= x275 <= 1
 0 <= x276 <= 1
 0 <= x277 <= 1
 0 <= x278 <= 1
 0 <= x279 <= 1
 0 <= x280 <= 1
 0 <= x281 <= 1
 0 <= x282 <= 1
 0 <= x283 <= 1
 0 <= x284 <= 1
 0 <= x285 <= 1
 0 <= x286 <= 1
 0 <= x287 <= 1
 0 <= x288 <= 1
 0 <= x289 <= 1
 0 <= x290 <= 1
 0 <= x291 <= 1
 0 <= x292 <= 1
 0 <= x293 <= 1
 0 <= x294 <= 1
 0 <= x295 <= 1
 0 <= x296 <= 1
 0 <= x297 <= 1
 0 <= x298 <= 1
 0 <= x299 <= 1
 0 <= x300 <= 1
 0 <= x301 <= 1
 0 <= x302 <= 1
 0 <= x303 <= 1
 0 <= x304 <= 1
 0 <= x305 <= 1
 0 <= x306 <= 1
 0 <= x307 <= 1
 0 <= x308 <= 1
 0 <= x309 <= 1
 0 <= x310 <= 1
 0 <= x311 <= 1
 0 <= x312 <= 1
 0 <= x313 <= 1
 0 <= x314 <= 1
 0 <= x315 <= 1
 0 <= x316 <= 1
 0 <= x317 <= 1
 0 <= x318 <= 1
 0 <= x319 <= 1
 0 <= x320 <= 1
 0 <= x321 <= 1
 0 <= x322 <= 1
 0 <= x323 <= 1
 0 <= x324 <= 1
 0 <= x325 <= 1
 0 <= x326 <= 1
 0 <= x327 <= 1
 0 <= x328 <= 1
 0 <= x329 <= 1
 0 <= x330 <= 1
 0 <= x331 <= 1
 0 <= x332 <= 1
 0 <= x333 <= 1
 0 <= x334 <= 1
 0 <= x335 <= 1
 0 <= x336 <= 1
 0 <= x337 <= 1
 0 <= x338 <= 1
 0 <= x339 <= 1
 0 <= x340 <= 1
 0 <= x341 <= 1
 0 <= x342 <= 1
 0 <= x343 <= 1
 0 <= x344 <= 1
 0 <= x345 <= 1
 0 <= x346 <= 1
 0 <= x347 <= 1
 0 <= x348 <= 1
 0 <= x349 <= 1
 0 <= x350 <= 1
 0 <= x351 <= 1
 0 <= x352 <= 1
 0 <= x353 <= 1
 0 <= x354 <= 1
 0 <= x355 <= 1
 0 <= x356 <= 1
 0 <= x357 <= 1
 0 <= x358 <= 1
 0 <= x359 <= 1
 0 <= x360 <= 1
 0 <= x361 <= 1
 0 <= x362 <= 1
 0 <= x363 <= 1
 0 <= x364 <= 1
 0 <= x365 <= 1
 0 <= x366 <= 1
 0 <= x367 <= 1
 0 <= x368 <= 1
 0 <= x369 <= 1
 0 <= x370 <= 1
 0 <= x371 <= 1
 0 <= x372 <= 1
 0 <= x373 <= 1
 0 <= x374 <= 1
 0 <= x375 <= 1
 0 <= x376 <= 1
 0 <= x377 <= 1
 0 <= x378 <= 1
 0 <= x379 <= 1
 0 <= x380 <= 1
 0 <= x381 <= 1
 0 <= x382 <= 1
 0 <= x383 <= 1
 0 <= x384 <= 1
 0 <= x385 <= 1
 0 <= x386 <= 1
 0 <= x387 <= 1
 0 <= x388 <= 1
 0 <= x389 <= 1
 0 <= x390 <= 1
 0 <= x391 <= 1
 0 <= x392 <= 1
 0 <= x393 <= 1
 0 <= x394 <= 1
 0 <= x395 <= 1
 0 <= x396 <= 1
 0 <= x397 <= 1
 0 <= x398 <= 1
 0 <= x399 <= 1
 0 <= x400 <= 1
 0 <= x401 <= 1
 0 <= x402 <= 1
 0 <= x403 <= 1
 0 <= x404 <= 1
 0 <= x405 <= 1
 0 <= x406 <= 1
 0 <= x407 <= 1
 0 <= x408 <= 1
 0 <= x409 <= 1
 0 <= x410 <= 1
 0 <= x411 <= 1
 0 <= x412 <= 1
 0 <= x413 <= 1
 0 <= x414 <= 1
 0 <= x415 <= 1
 0 <= x416 <= 1
 0 <= x417 <= 1
 0 <= x418 <= 1
 0 <= x419 <= 1
 0 <= x420 <= 1
 0 <= x421 <= 1
 0 <= x422 <= 1
 0 <= x423 <= 1
 0 <= x424 <= 1
 0 <= x425 <= 1
 0 <= x426 <= 1
 0 <= x427 <= 1
 0 <= x428 <= 1
 0 <= x429 <= 1
 0 <= x430 <= 1
 0 <= x431 <= 1
 0 <= x432 <= 1
 0 <= x433 <= 1
 0 <= x434 <= 1
 0 <= x435 <= 1
 0 <= x436 <= 1
 0 <= x437 <= 1
 0 <= x438 <= 1
 0 <= x439 <= 1
 0 <= x440 <= 1
 0 <= x441 <= 1
 0 <= x442 <= 1
 0 <= x443 <= 1
 0 <= x444 <= 1
 0 <= x445 <= 1
 0 <= x446 <= 1
 0 <= x447 <= 1
 0 <= x448 <= 1
 0 <= x449 <= 1
 0 <= x450 <= 1
 0 <= x451 <= 1
 0 <= x452 <= 1
 0 <= x453 <= 1
 0 <= x454 <= 1
 0 <= x455 <= 1
 0 <= x456 <= 1
 0 <= x457 <= 1
 0 <= x458 <= 1
 0 <= x459 <= 1
 0 <= x460 <= 1
 0 <= x461 <= 1
 0 <= x462 <= 1
 0 <= x463 <= 1
 0 <= x464 <= 1
 0 <= x465 <= 1
 0 <= x466 <= 1
 0 <= x467 <= 1
 0 <= x468 <= 1
 0 <= x469 <= 1
 0 <= x470 <= 1
 0 <= x471 <= 1
 0 <= x472 <= 1
 0 <= x473 <= 1
 0 <= x474 <= 1
 0 <= x475 <= 1
 0 <= x476 <= 1
 0 <= x477 <= 1
 0 <= x478 <= 1
 0 <= x479 <= 1
 0 <= x480 <= 1
 0 <= x481 <= 1
 0 <= x482 <= 1
 0 <= x483 <= 1
 0 <= x484 <= 1
 0 <= x485 <= 1
 0 <= x486 <= 1
 0 <= x487 <= 1
 0 <= x488 <= 1
 0 <= x489 <= 1
 0 <= x490 <= 1
 0 <= x491 <= 1
 0 <= x492 <= 1
 0 <= x493 <= 1
 0 <= x494 <= 1
 0 <= x495 <= 1
 0 <= x496 <= 1
 0 <= x497 <= 1
 0 <= x498 <= 1
 0 <= x499 <= 1
 0 <= x500 <= 1
 0 <= x501 <= 1
 0 <= x502 <= 1
 0 <= x503 <= 1
 0 <= x504 <= 1
 0 <= x505 <= 1
 0 <= x506 <= 1
 0 <= x507 <= 1
 0 <= x508 <= 1
 0 <= x509 <= 1
 0 <= x510 <= 1
 0 <= x511 <= 1
 0 <= x512 <= 1
 0 <= x513 <= 1
 0 <= x514 <= 1
 0 <= x515 <= 1
 0 <= x516 <= 1
 0 <= x517 <= 1
 0 <= x518 <= 1
 0 <= x519 <= 1
 0 <= x520 <= 1
 0 <= x521 <= 1
 0 <= x522 <= 1
 0 <= x523 <= 1
 0 <= x524 <= 1
 0 <= x525 <= 1
 0 <= x526 <= 1
 0 <= x527 <= 1
 0 <= x528 <= 1
 0 <= x529 <= 1
 0 <= x530 <= 1
 0 <= x531 <= 1
 0 <= x532 <= 1
 0 <= x533 <= 1
 0 <= x534 <= 1
 0 <= x535 <= 1
 0 <= x536 <= 1
 0 <= x537 <= 1
 0 <= x538 <= 1
 0 <= x539 <= 1
 0 <= x540 <= 1
 0 <= x541 <= 1
 0 <= x542 <= 1
 0 <= x543 <= 1
 0 <= x544 <= 1
 0 <= x545 <= 1
 0 <= x546 <= 1
 0 <= x547 <= 1
 0 <= x548 <= 1
 0 <= x549 <= 1
 0 <= x550 <= 1
 0 <= x551 <= 1
 0 <= x552 <= 1
 0 <= x553 <= 1
 0 <= x554 <= 1
 0 <= x555 <= 1
 0 <= x556 <= 1
 0 <= x557 <= 1
 0 <= x558 <= 1
 0 <= x559 <= 1
 0 <= x560 <= 1
 0 <= x561 <= 1
 0 <= x562 <= 1
 0 <= x563 <= 1
 0 <= x564 <= 1
 0 <= x565 <= 1
 0 <= x566 <= 1
 0 <= x567 <= 1
 0 <= x568 <= 1
 0 <= x569 <= 1
 0 <= x570 <= 1
 0 <= x571 <= 1
 0 <= x572 <= 1
 0 <= x573 <= 1
 0 <= x574 <= 1
 0 <= x575 <= 1
 0 <= x576 <= 1
 0 <= x577 <= 1
 0 <= x578 <= 1
 0 <= x579 <= 1
 0 <= x580 <= 1
 0 <= x581 <= 1
 0 <= x582 <= 1
 0 <= x583 <= 1
 0 <= x584 <= 1
 0 <= x585 <= 1
 0 <= x586 <= 1
 0 <= x587 <= 1
 0 <= x588 <= 1
 0 <= x589 <= 1
 0 <= x590 <= 1
 0 <= x591 <= 1
 0 <= x592 <= 1
 0 <= x593 <= 1
 0 <= x594 <= 1
 0 <= x595 <= 1
 0 <= x596 <= 1
 0 <= x597 <= 1
 0 <= x598 <= 1
 0 <= x599 <= 1
 0 <= x600 <= 1
 0 <= x601 <= 1
 0 <= x602 <= 1
 0 <= x603 <= 1
 0 <= x604 <= 1
 0 <= x605 <= 1
 0 <= x606 <= 1
 0 <= x607 <= 1
 0 <= x608 <= 1
 0 <= x609 <= 1
 0 <= x610 <= 1
 0 <= x611 <= 1
 0 <= x612 <= 1
 0 <= x613 <= 1
 0 <= x614 <= 1
 0 <= x615 <= 1
 0 <= x616 <= 1
 0 <= x617 <= 1
 0 <= x618 <= 1
 0 <= x619 <= 1
 0 <= x620 <= 1
 0 <= x621 <= 1
 0 <= x622 <= 1
 0 <= x623 <= 1
 0 <= x624 <= 1
 0 <= x625 <= 1
 0 <= x626 <= 1
 0 <= x627 <= 1
 0 <= x628 <= 1
 0 <= x629 <= 1
 0 <= x630 <= 1
 0 <= x631 <= 1
 0 <= x632 <= 1
 0 <= x633 <= 1
 0 <= x634 <= 1
 0 <= x635 <= 1
 0 <= x636 <= 1
 0 <= x637 <= 1
 0 <= x638 <= 1
 0 <= x639 <= 1
 0 <= x640 <= 1
 0 <= x641 <= 1
 0 <= x642 <= 1
 0 <= x643 <= 1
 0 <= x644 <= 1
 0 <= x645 <= 1
 0 <= x646 <= 1
 0 <= x647 <= 1
 0 <= x648 <= 1
 0 <= x649 <= 1
 0 <= x650 <= 1
 0 <= x651 <= 1
 0 <= x652 <= 1
 0 <= x653 <= 1
 0 <= x654 <= 1
 0 <= x655 <= 1
 0 <= x656 <= 1
 0 <= x657 <= 1
 0 <= x658 <= 1
 0 <= x659 <= 1
 0 <= x660 <= 1
Binaries
 x601  x602  x603  x604  x605  x606  x607  x608  x609  x610  x611  x612  x613 
 x614  x615  x616  x617  x618  x619  x620  x621  x622  x623  x624  x625  x626 
 x627  x628  x629  x630  x631  x632  x633  x634  x635  x636  x637  x638  x639 
 x640  x641  x642  x643  x644  x645  x646  x647  x648  x649  x650  x651  x652 
 x653  x654  x655  x656  x657  x658  x659  x660 
End
